\* Production_1_tonne *\
Minimize
Cout_total_: 0.1 A1 + 0.13 A2 + 0.119 A3 + 0.08 CB + 0.065 F1 + 0.061 F2
 + 0.03 P1 + 0.0645 P2 + 0.021 S1 + 0.02 S2 + 0.0195 S3
Subject To
_C1: CB <= 20
_C10: 0.6 A1 + 0.09 A2 + 0.33 A3 + 0.009 P1 + 0.045 P2 + 0.009 S1 + 0.003 S2
 + 0.003 S3 <= 33
_C11: 0.18 A1 + 0.3 A2 + 0.25 A3 + 0.3 CB + 0.45 F1 + 0.42 F2 + 0.0225 P1
 + 0.15 P2 >= 54
_C12: 0.18 A1 + 0.3 A2 + 0.25 A3 + 0.3 CB + 0.45 F1 + 0.42 F2 + 0.0225 P1
 + 0.15 P2 <= 60
_C2: S1 <= 200
_C3: S2 <= 200
_C4: S3 <= 200
_C5: 0.15 CB + 0.04 P1 + 0.004 S1 + 0.001 S2 + 0.001 S3 >= 60
_C6: 0.15 CB + 0.04 P1 + 0.004 S1 + 0.001 S2 + 0.001 S3 <= 70
_C7: 0.2 A2 + 0.08 A3 + 0.1 P2 >= 6
_C8: 0.2 A2 + 0.08 A3 + 0.1 P2 <= 9
_C9: 0.6 A1 + 0.09 A2 + 0.33 A3 + 0.009 P1 + 0.045 P2 + 0.009 S1 + 0.003 S2
 + 0.003 S3 >= 27
total: A1 + A2 + A3 + CB + F1 + F2 + P1 + P2 + S1 + S2 + S3 = 2000
End
